c turning on binary mode checking
c parsing input formula with 259840 variables and 1039924 clauses
c finished parsing, read 4546013 bytes from proof file
c detected empty clause; start verification via backward checking
c 8679 of 1039924 clauses in core                            
c 2744 of 166821 lemmas in core using 67840 resolution steps
c 0 RAT lemmas in core; 347 redundant literals in core lemmas
s VERIFIED
c verification time: 2.217 seconds
